n = 10;
m = 20;
a = [| 8, 10, 14, 19, 11, 13, 5, 19, 4, 10
     | 1, 6, 13, 3, 8, 4, 8, 11, 1, 13
     | 4, 10, 10, 18, 1, 14, 20, 19, 17, 16
     | 18, 7, 13, 8, 11, 14, 20, 10, 20, 2
     | 9, 14, 14, 17, 6, 6, 9, 12, 15, 18
     | 2, 15, 9, 5, 10, 12, 5, 17, 11, 4
     | 3, 7, 11, 5, 2, 14, 19, 10, 12, 15
     | 19, 3, 16, 15, 6, 15, 4, 17, 7, 13
     | 16, 16, 12, 2, 18, 17, 6, 5, 15, 20
     | 9, 5, 7, 4, 13, 8, 17, 19, 1, 5|];
s = [ 21, 29, 22, 32, 45, 32, 23, 18, 24, 44, 29, 22, 25, 29, 28, 30, 31, 15, 26, 25];
